Welcome to the CBC MILP Solver 
Version: Trunk
Build Date: Apr 16 2020 

Starting solution of the Linear programming relaxation problem using Primal Simplex

Using Python-MIP package version 1.8.1
Machines:  3 Jobs:  3
Order: 
Job  0 : machine 1 ( 7 ) machine 2 ( 7 ) machine 0 ( 1 ) 
Job  1 : machine 1 ( 4 ) machine 0 ( 3 ) machine 2 ( 7 ) 
Job  2 : machine 1 ( 7 ) machine 2 ( 6 ) machine 0 ( 2 ) 
K:  33
Job  0 , e: machine  0 ( 14 ) machine  1 ( 0 ) machine  2 ( 7 ) 
Job  1 , e: machine  0 ( 4 ) machine  1 ( 0 ) machine  2 ( 7 ) 
Job  2 , e: machine  0 ( 13 ) machine  1 ( 0 ) machine  2 ( 7 ) 
Job  0 , f: machine  0 ( 0 ) machine  1 ( 8 ) machine  2 ( 1 ) 
Job  1 , f: machine  0 ( 7 ) machine  1 ( 10 ) machine  2 ( 0 ) 
Job  2 , f: machine  0 ( 0 ) machine  1 ( 8 ) machine  2 ( 2 ) 
EST and LST:
Job: 0 Machine: 0 EST: 14 LST: 32
Job: 0 Machine: 1 EST: 0 LST: 18
Job: 0 Machine: 2 EST: 7 LST: 25
Job: 1 Machine: 0 EST: 4 LST: 23
Job: 1 Machine: 1 EST: 0 LST: 19
Job: 1 Machine: 2 EST: 7 LST: 26
Job: 2 Machine: 0 EST: 13 LST: 31
Job: 2 Machine: 1 EST: 0 LST: 18
Job: 2 Machine: 2 EST: 7 LST: 25
Order:
Job: 0 Machine: 0 = 2 
Job: 0 Machine: 1 = 0 
Job: 0 Machine: 2 = 1 
Job: 1 Machine: 0 = 1 
Job: 1 Machine: 1 = 0 
Job: 1 Machine: 2 = 2 
Job: 2 Machine: 0 = 2 
Job: 2 Machine: 1 = 0 
Job: 2 Machine: 2 = 1 
Distances:
Job 0, Machine 1 -> Machine 2: distance 7
Job 0, Machine 1 -> Machine 0: distance 14
Job 0, Machine 2 -> Machine 0: distance 7
Job 1, Machine 1 -> Machine 0: distance 4
Job 1, Machine 1 -> Machine 2: distance 7
Job 1, Machine 0 -> Machine 2: distance 3
Job 2, Machine 1 -> Machine 2: distance 7
Job 2, Machine 1 -> Machine 0: distance 13
Job 2, Machine 2 -> Machine 0: distance 6
McCormic linearization
[(0, 1), (1, 2), (0, 2), (2, 1), (2, 0), (1, 0), (1, 1)]
obj:  0.0
solutions:  1
+ 0.14285714285714285x(0,1) + 0.14285714285714285x(2,1) 
C:  18.5
x(0,0) = 17.50	 x(0,1) = 3.50	 x(0,2) = 10.50	 
x(1,0) = 8.50	 x(1,1) = 4.50	 x(1,2) = 11.50	 
x(2,0) = 16.50	 x(2,1) = 3.50	 x(2,2) = 10.50	 
y(0,1,0) = 0.00	 y(1,0,0) = 1.00	 
y(0,2,0) = 0.90	 y(2,0,0) = 0.10	 
y(1,2,0) = 0.59	 y(2,1,0) = 0.41	 
y(0,1,1) = 0.22	 y(1,0,1) = 0.78	 
y(0,2,1) = 0.50	 y(2,0,1) = 0.50	 
y(1,2,1) = 0.36	 y(2,1,1) = 0.64	 
y(0,1,2) = 0.50	 y(1,0,2) = 0.50	 
y(0,2,2) = 0.42	 y(2,0,2) = 0.58	 
y(1,2,2) = 0.50	 y(2,1,2) = 0.50	 
obj:  0.7948717948717949
solutions:  1
+ 0.025641025641025644x(1,2) + 0.021978021978021973x(2,2) + 0.025641025641025644x(0,2) 
[(0, 1), (1, 2), (2, 1), (2, 2), (0, 2)]
cliques:  1 mip: 20
C:  21.341176470587367
x(0,0) = 20.22	 x(0,1) = 6.22	 x(0,2) = 13.22	 
x(1,0) = 7.88	 x(1,1) = 2.37	 x(1,2) = 14.34	 
x(2,0) = 19.34	 x(2,1) = 0.78	 x(2,2) = 13.34	 
y(0,1,0) = 0.00	 y(1,0,0) = 1.00	 
y(0,2,0) = 0.06	 y(2,0,0) = 0.94	 
y(1,2,0) = 0.65	 y(2,1,0) = 0.35	 
y(0,1,1) = 0.01	 y(1,0,1) = 0.99	 
y(0,2,1) = 0.21	 y(2,0,1) = 0.79	 
y(1,2,1) = 0.45	 y(2,1,1) = 0.55	 
y(0,1,2) = 0.31	 y(1,0,2) = 0.69	 
y(0,2,2) = 0.25	 y(2,0,2) = 0.75	 
y(1,2,2) = 0.69	 y(2,1,2) = 0.31	 
obj:  0.5332399626519353
solutions:  1
+ 0.24999999999999997x(2,1) + 0.14285714285714288x(1,1) 
[(1, 2), (0, 2), (2, 1), (2, 0), (2, 2), (1, 0), (1, 1)]
cliques:  1 mip: 43
C:  22.778785089737692
x(0,0) = 21.78	 x(0,1) = 5.52	 x(0,2) = 14.78	 
x(1,0) = 10.24	 x(1,1) = 4.41	 x(1,2) = 13.24	 
x(2,0) = 18.82	 x(2,1) = 1.48	 x(2,2) = 12.82	 
y(0,1,0) = 0.00	 y(1,0,0) = 1.00	 
y(0,2,0) = 0.00	 y(2,0,0) = 1.00	 
y(1,2,0) = 0.96	 y(2,1,0) = 0.04	 
y(0,1,1) = 0.13	 y(1,0,1) = 0.87	 
y(0,2,1) = 0.21	 y(2,0,1) = 0.79	 
y(1,2,1) = 0.16	 y(2,1,1) = 0.84	 
y(0,1,2) = 0.66	 y(1,0,2) = 0.34	 
y(0,2,2) = 0.64	 y(2,0,2) = 0.36	 
y(1,2,2) = 0.32	 y(2,1,2) = 0.68	 
obj:  0.9999999999999999
erro
[(1, 2), (0, 1), (2, 1), (2, 2), (0, 2)]
cliques:  0 mip: 49
C:  23.999875501160574
x(0,0) = 23.00	 x(0,1) = 4.48	 x(0,2) = 11.48	 
x(1,0) = 12.47	 x(1,1) = 1.52	 x(1,2) = 15.47	 
x(2,0) = 20.06	 x(2,1) = 3.13	 x(2,2) = 14.06	 
y(0,1,0) = 0.00	 y(1,0,0) = 1.00	 
y(0,2,0) = 0.00	 y(2,0,0) = 1.00	 
y(1,2,0) = 0.94	 y(2,1,0) = 0.06	 
y(0,1,1) = 0.11	 y(1,0,1) = 0.89	 
y(0,2,1) = 0.36	 y(2,0,1) = 0.64	 
y(1,2,1) = 0.34	 y(2,1,1) = 0.66	 
y(0,1,2) = 0.78	 y(1,0,2) = 0.22	 
y(0,2,2) = 0.65	 y(2,0,2) = 0.35	 
y(1,2,2) = 0.19	 y(2,1,2) = 0.81	 
obj:  0.565200956601251
solutions:  1
+ 0.06666666666666667x(0,1) + 0.06666666666666667x(2,1) + 0.0380952380952381x(1,1) 
[(0, 1), (1, 2), (0, 2), (2, 1), (2, 2), (1, 1)]
cliques:  1 mip: 46
C:  24.76183200991905
x(0,0) = 23.76	 x(0,1) = 4.09	 x(0,2) = 11.61	 
x(1,0) = 13.88	 x(1,1) = 9.88	 x(1,2) = 16.88	 
x(2,0) = 18.27	 x(2,1) = 5.27	 x(2,2) = 12.27	 
y(0,1,0) = 0.00	 y(1,0,0) = 1.00	 
y(0,2,0) = 0.00	 y(2,0,0) = 1.00	 
y(1,2,0) = 0.98	 y(2,1,0) = 0.02	 
y(0,1,1) = 0.82	 y(1,0,1) = 0.18	 
y(0,2,1) = 0.77	 y(2,0,1) = 0.23	 
y(1,2,1) = 0.10	 y(2,1,1) = 0.90	 
y(0,1,2) = 0.91	 y(1,0,2) = 0.09	 
y(0,2,2) = 0.28	 y(2,0,2) = 0.72	 
y(1,2,2) = 0.11	 y(2,1,2) = 0.89	 
obj:  0.9999999999999988
erro
[(0, 1), (1, 2), (0, 2), (2, 1), (2, 2), (1, 1)]
cliques:  0 mip: 46
C:  25.126896444367308
x(0,0) = 24.13	 x(0,1) = 4.83	 x(0,2) = 11.83	 
x(1,0) = 13.01	 x(1,1) = 9.01	 x(1,2) = 16.01	 
x(2,0) = 19.02	 x(2,1) = 5.02	 x(2,2) = 13.02	 
y(0,1,0) = 0.00	 y(1,0,0) = 1.00	 
y(0,2,0) = 0.00	 y(2,0,0) = 1.00	 
y(1,2,0) = 0.98	 y(2,1,0) = 0.02	 
y(0,1,1) = 0.67	 y(1,0,1) = 0.33	 
y(0,2,1) = 0.43	 y(2,0,1) = 0.57	 
y(1,2,1) = 0.45	 y(2,1,1) = 0.55	 
y(0,1,2) = 0.80	 y(1,0,2) = 0.20	 
y(0,2,2) = 0.73	 y(2,0,2) = 0.27	 
y(1,2,2) = 0.19	 y(2,1,2) = 0.81	 
obj:  0.9999999999999998
erro
[(0, 1), (2, 1), (1, 1), (2, 2), (0, 2)]
cliques:  0 mip: 42
C:  26.0
x(0,0) = 25.00	 x(0,1) = 1.76	 x(0,2) = 9.12	 
x(1,0) = 14.07	 x(1,1) = 9.57	 x(1,2) = 17.07	 
x(2,0) = 22.87	 x(2,1) = 8.40	 x(2,2) = 16.87	 
y(0,1,0) = 0.00	 y(1,0,0) = 1.00	 
y(0,2,0) = 0.00	 y(2,0,0) = 1.00	 
y(1,2,0) = 0.91	 y(2,1,0) = 0.09	 
y(0,1,1) = 0.51	 y(1,0,1) = 0.49	 
y(0,2,1) = 0.75	 y(2,0,1) = 0.25	 
y(1,2,1) = 0.23	 y(2,1,1) = 0.77	 
y(0,1,2) = 0.83	 y(1,0,2) = 0.17	 
y(0,2,2) = 0.79	 y(2,0,2) = 0.21	 
y(1,2,2) = 0.24	 y(2,1,2) = 0.76	 
obj:  1.0418977356534027
erro
[(0, 1), (1, 2), (2, 1), (2, 2), (1, 1)]
cliques:  0 mip: 41
C:  26.0
x(0,0) = 25.00	 x(0,1) = 4.72	 x(0,2) = 11.72	 
x(1,0) = 15.05	 x(1,1) = 10.17	 x(1,2) = 18.05	 
x(2,0) = 20.03	 x(2,1) = 7.03	 x(2,2) = 14.03	 
y(0,1,0) = 0.00	 y(1,0,0) = 1.00	 
y(0,2,0) = 0.00	 y(2,0,0) = 1.00	 
y(1,2,0) = 0.98	 y(2,1,0) = 0.02	 
y(0,1,1) = 0.63	 y(1,0,1) = 0.37	 
y(0,2,1) = 0.44	 y(2,0,1) = 0.56	 
y(1,2,1) = 0.35	 y(2,1,1) = 0.65	 
y(0,1,2) = 0.89	 y(1,0,2) = 0.11	 
y(0,2,2) = 0.79	 y(2,0,2) = 0.21	 
y(1,2,2) = 0.12	 y(2,1,2) = 0.88	 
obj:  1.1708112684181635
erro
[(0, 1), (2, 1), (1, 1), (2, 2), (0, 2)]
cliques:  0 mip: 41
C:  26.0
x(0,0) = 25.00	 x(0,1) = 8.90	 x(0,2) = 15.90	 
x(1,0) = 12.31	 x(1,1) = 8.31	 x(1,2) = 15.31	 
x(2,0) = 17.64	 x(2,1) = 4.55	 x(2,2) = 11.64	 
y(0,1,0) = 0.00	 y(1,0,0) = 1.00	 
y(0,2,0) = 0.00	 y(2,0,0) = 1.00	 
y(1,2,0) = 1.00	 y(2,1,0) = 0.00	 
y(0,1,1) = 0.26	 y(1,0,1) = 0.74	 
y(0,2,1) = 0.11	 y(2,0,1) = 0.89	 
y(1,2,1) = 0.23	 y(2,1,1) = 0.77	 
y(0,1,2) = 0.45	 y(1,0,2) = 0.55	 
y(0,2,2) = 0.07	 y(2,0,2) = 0.93	 
y(1,2,2) = 0.46	 y(2,1,2) = 0.54	 
obj:  1.0560180128569496
erro
[(1, 2), (0, 1), (0, 2), (2, 1), (2, 2), (1, 1)]
cliques:  0 mip: 41
C:  26.0
x(0,0) = 25.00	 x(0,1) = 7.10	 x(0,2) = 14.10	 
x(1,0) = 13.17	 x(1,1) = 9.17	 x(1,2) = 16.17	 
x(2,0) = 18.85	 x(2,1) = 3.91	 x(2,2) = 12.85	 
y(0,1,0) = 0.00	 y(1,0,0) = 1.00	 
y(0,2,0) = 0.00	 y(2,0,0) = 1.00	 
y(1,2,0) = 0.99	 y(2,1,0) = 0.01	 
y(0,1,1) = 0.43	 y(1,0,1) = 0.57	 
y(0,2,1) = 0.15	 y(2,0,1) = 0.85	 
y(1,2,1) = 0.07	 y(2,1,1) = 0.93	 
y(0,1,2) = 0.59	 y(1,0,2) = 0.41	 
y(0,2,2) = 0.47	 y(2,0,2) = 0.53	 
y(1,2,2) = 0.22	 y(2,1,2) = 0.78	 
obj:  1.0585402302703124
erro
[(0, 1), (1, 2), (0, 2), (2, 2), (1, 1)]
cliques:  0 mip: 42
C:  25.999999999999996
x(0,0) = 25.00	 x(0,1) = 8.37	 x(0,2) = 16.71	 
x(1,0) = 11.15	 x(1,1) = 7.15	 x(1,2) = 14.15	 
x(2,0) = 17.41	 x(2,1) = 4.41	 x(2,2) = 11.41	 
y(0,1,0) = 0.00	 y(1,0,0) = 1.00	 
y(0,2,0) = 0.00	 y(2,0,0) = 1.00	 
y(1,2,0) = 1.00	 y(2,1,0) = 0.00	 
y(0,1,1) = 0.12	 y(1,0,1) = 0.88	 
y(0,2,1) = 0.12	 y(2,0,1) = 0.88	 
y(1,2,1) = 0.31	 y(2,1,1) = 0.69	 
y(0,1,2) = 0.31	 y(1,0,2) = 0.69	 
y(0,2,2) = 0.04	 y(2,0,2) = 0.96	 
y(1,2,2) = 0.38	 y(2,1,2) = 0.62	 
obj:  1.0421331005209717
erro
[(1, 2), (0, 1), (2, 1), (1, 1), (2, 2), (0, 2)]
cliques:  0 mip: 41
C:  26.0
x(0,0) = 25.00	 x(0,1) = 4.86	 x(0,2) = 12.89	 
x(1,0) = 13.26	 x(1,1) = 9.26	 x(1,2) = 16.26	 
x(2,0) = 18.51	 x(2,1) = 5.51	 x(2,2) = 12.51	 
y(0,1,0) = 0.00	 y(1,0,0) = 1.00	 
y(0,2,0) = 0.00	 y(2,0,0) = 1.00	 
y(1,2,0) = 0.99	 y(2,1,0) = 0.01	 
y(0,1,1) = 0.59	 y(1,0,1) = 0.41	 
y(0,2,1) = 0.31	 y(2,0,1) = 0.69	 
y(1,2,1) = 0.14	 y(2,1,1) = 0.86	 
y(0,1,2) = 0.58	 y(1,0,2) = 0.42	 
y(0,2,2) = 0.24	 y(2,0,2) = 0.76	 
y(1,2,2) = 0.14	 y(2,1,2) = 0.86	 
obj:  1.0225344206679576
erro
[(1, 2), (0, 1), (0, 2), (2, 1), (2, 2), (1, 1)]
cliques:  0 mip: 44
C:  26.0
x(0,0) = 25.00	 x(0,1) = 9.27	 x(0,2) = 16.27	 
x(1,0) = 11.46	 x(1,1) = 7.46	 x(1,2) = 14.46	 
x(2,0) = 19.93	 x(2,1) = 4.71	 x(2,2) = 11.71	 
y(0,1,0) = 0.00	 y(1,0,0) = 1.00	 
y(0,2,0) = 0.00	 y(2,0,0) = 1.00	 
y(1,2,0) = 0.97	 y(2,1,0) = 0.03	 
y(0,1,1) = 0.10	 y(1,0,1) = 0.90	 
y(0,2,1) = 0.10	 y(2,0,1) = 0.90	 
y(1,2,1) = 0.33	 y(2,1,1) = 0.67	 
y(0,1,2) = 0.38	 y(1,0,2) = 0.62	 
y(0,2,2) = 0.18	 y(2,0,2) = 0.82	 
y(1,2,2) = 0.44	 y(2,1,2) = 0.56	 
obj:  1.0454131309772388
erro
[(1, 2), (0, 2), (2, 1), (2, 2), (1, 1)]
cliques:  0 mip: 41
C:  26.0
x(0,0) = 25.00	 x(0,1) = 9.28	 x(0,2) = 16.28	 
x(1,0) = 11.63	 x(1,1) = 5.70	 x(1,2) = 14.63	 
x(2,0) = 18.74	 x(2,1) = 4.56	 x(2,2) = 11.56	 
y(0,1,0) = 0.00	 y(1,0,0) = 1.00	 
y(0,2,0) = 0.00	 y(2,0,0) = 1.00	 
y(1,2,0) = 0.98	 y(2,1,0) = 0.02	 
y(0,1,1) = 0.14	 y(1,0,1) = 0.86	 
y(0,2,1) = 0.09	 y(2,0,1) = 0.91	 
y(1,2,1) = 0.23	 y(2,1,1) = 0.77	 
y(0,1,2) = 0.39	 y(1,0,2) = 0.61	 
y(0,2,2) = 0.14	 y(2,0,2) = 0.86	 
y(1,2,2) = 0.43	 y(2,1,2) = 0.57	 
obj:  1.0467107205753834
erro
[(1, 2), (0, 1), (0, 2), (2, 1), (2, 2), (1, 1)]
cliques:  0 mip: 44
C:  26.0
x(0,0) = 25.00	 x(0,1) = 8.98	 x(0,2) = 15.98	 
x(1,0) = 11.69	 x(1,1) = 7.04	 x(1,2) = 14.69	 
x(2,0) = 20.94	 x(2,1) = 4.93	 x(2,2) = 11.93	 
y(0,1,0) = 0.00	 y(1,0,0) = 1.00	 
y(0,2,0) = 0.00	 y(2,0,0) = 1.00	 
y(1,2,0) = 0.96	 y(2,1,0) = 0.04	 
y(0,1,1) = 0.09	 y(1,0,1) = 0.91	 
y(0,2,1) = 0.33	 y(2,0,1) = 0.67	 
y(1,2,1) = 0.31	 y(2,1,1) = 0.69	 
y(0,1,2) = 0.42	 y(1,0,2) = 0.58	 
y(0,2,2) = 0.20	 y(2,0,2) = 0.80	 
y(1,2,2) = 0.43	 y(2,1,2) = 0.57	 
obj:  1.0486818409486365
erro
[(1, 2), (0, 1), (2, 1), (1, 1), (2, 2), (0, 2)]
cliques:  0 mip: 42
C:  26.0
x(0,0) = 25.00	 x(0,1) = 9.38	 x(0,2) = 16.38	 
x(1,0) = 11.65	 x(1,1) = 7.18	 x(1,2) = 14.65	 
x(2,0) = 17.80	 x(2,1) = 4.01	 x(2,2) = 11.38	 
y(0,1,0) = 0.00	 y(1,0,0) = 1.00	 
y(0,2,0) = 0.00	 y(2,0,0) = 1.00	 
y(1,2,0) = 0.99	 y(2,1,0) = 0.01	 
y(0,1,1) = 0.08	 y(1,0,1) = 0.92	 
y(0,2,1) = 0.19	 y(2,0,1) = 0.81	 
y(1,2,1) = 0.24	 y(2,1,1) = 0.76	 
y(0,1,2) = 0.37	 y(1,0,2) = 0.63	 
y(0,2,2) = 0.11	 y(2,0,2) = 0.89	 
y(1,2,2) = 0.31	 y(2,1,2) = 0.69	 
obj:  1.0457775291157962
erro
[(1, 2), (0, 1), (0, 2), (2, 1), (2, 2), (1, 1)]
cliques:  0 mip: 43
C:  26.0
x(0,0) = 25.00	 x(0,1) = 9.01	 x(0,2) = 16.01	 
x(1,0) = 12.06	 x(1,1) = 7.58	 x(1,2) = 15.06	 
x(2,0) = 18.56	 x(2,1) = 2.45	 x(2,2) = 11.41	 
y(0,1,0) = 0.00	 y(1,0,0) = 1.00	 
y(0,2,0) = 0.00	 y(2,0,0) = 1.00	 
y(1,2,0) = 0.98	 y(2,1,0) = 0.02	 
y(0,1,1) = 0.14	 y(1,0,1) = 0.86	 
y(0,2,1) = 0.02	 y(2,0,1) = 0.98	 
y(1,2,1) = 0.07	 y(2,1,1) = 0.93	 
y(0,1,2) = 0.44	 y(1,0,2) = 0.56	 
y(0,2,2) = 0.15	 y(2,0,2) = 0.85	 
y(1,2,2) = 0.25	 y(2,1,2) = 0.75	 
obj:  1.0474423320434434
erro
[(1, 2), (0, 1), (0, 2), (2, 2), (1, 1)]
cliques:  0 mip: 44
C:  26.0
x(0,0) = 25.00	 x(0,1) = 9.14	 x(0,2) = 16.14	 
x(1,0) = 12.23	 x(1,1) = 8.21	 x(1,2) = 15.23	 
x(2,0) = 16.73	 x(2,1) = 3.73	 x(2,2) = 10.73	 
y(0,1,0) = 0.00	 y(1,0,0) = 1.00	 
y(0,2,0) = 0.00	 y(2,0,0) = 1.00	 
y(1,2,0) = 1.00	 y(2,1,0) = 0.00	 
y(0,1,1) = 0.24	 y(1,0,1) = 0.76	 
y(0,2,1) = 0.19	 y(2,0,1) = 0.81	 
y(1,2,1) = 0.10	 y(2,1,1) = 0.90	 
y(0,1,2) = 0.43	 y(1,0,2) = 0.57	 
y(0,2,2) = 0.02	 y(2,0,2) = 0.98	 
y(1,2,2) = 0.09	 y(2,1,2) = 0.91	 
obj:  1.171076366716098
erro
[(1, 2), (0, 1), (0, 2), (2, 1), (1, 1)]
cliques:  0 mip: 42
C:  26.0
x(0,0) = 25.00	 x(0,1) = 8.03	 x(0,2) = 15.03	 
x(1,0) = 12.75	 x(1,1) = 8.75	 x(1,2) = 15.75	 
x(2,0) = 22.89	 x(2,1) = 2.32	 x(2,2) = 11.99	 
y(0,1,0) = 0.00	 y(1,0,0) = 1.00	 
y(0,2,0) = 0.00	 y(2,0,0) = 1.00	 
y(1,2,0) = 0.94	 y(2,1,0) = 0.06	 
y(0,1,1) = 0.35	 y(1,0,1) = 0.65	 
y(0,2,1) = 0.05	 y(2,0,1) = 0.95	 
y(1,2,1) = 0.02	 y(2,1,1) = 0.98	 
y(0,1,2) = 0.58	 y(1,0,2) = 0.42	 
y(0,2,2) = 0.29	 y(2,0,2) = 0.71	 
y(1,2,2) = 0.28	 y(2,1,2) = 0.72	 
obj:  1.0528398182638943
erro
[(1, 2), (0, 1), (0, 2), (2, 2), (1, 1)]
cliques:  0 mip: 44
C:  26.0
x(0,0) = 25.00	 x(0,1) = 5.32	 x(0,2) = 15.28	 
x(1,0) = 12.58	 x(1,1) = 8.58	 x(1,2) = 15.58	 
x(2,0) = 21.77	 x(2,1) = 4.85	 x(2,2) = 11.85	 
y(0,1,0) = 0.00	 y(1,0,0) = 1.00	 
y(0,2,0) = 0.00	 y(2,0,0) = 1.00	 
y(1,2,0) = 0.95	 y(2,1,0) = 0.05	 
y(0,1,1) = 0.32	 y(1,0,1) = 0.68	 
y(0,2,1) = 0.35	 y(2,0,1) = 0.65	 
y(1,2,1) = 0.32	 y(2,1,1) = 0.68	 
y(0,1,2) = 0.55	 y(1,0,2) = 0.45	 
y(0,2,2) = 0.26	 y(2,0,2) = 0.74	 
y(1,2,2) = 0.27	 y(2,1,2) = 0.73	 
obj:  1.0043220725148345
erro
[(1, 2), (0, 1), (0, 2), (2, 1), (1, 1)]
cliques:  0 mip: 43
C:  26.0
x(0,0) = 25.00	 x(0,1) = 8.59	 x(0,2) = 15.59	 
x(1,0) = 12.95	 x(1,1) = 7.56	 x(1,2) = 15.95	 
x(2,0) = 16.93	 x(2,1) = 3.93	 x(2,2) = 10.93	 
y(0,1,0) = 0.00	 y(1,0,0) = 1.00	 
y(0,2,0) = 0.00	 y(2,0,0) = 1.00	 
y(1,2,0) = 0.99	 y(2,1,0) = 0.01	 
y(0,1,1) = 0.20	 y(1,0,1) = 0.80	 
y(0,2,1) = 0.09	 y(2,0,1) = 0.91	 
y(1,2,1) = 0.26	 y(2,1,1) = 0.74	 
y(0,1,2) = 0.52	 y(1,0,2) = 0.48	 
y(0,2,2) = 0.13	 y(2,0,2) = 0.87	 
y(1,2,2) = 0.19	 y(2,1,2) = 0.81	 
obj:  1.049001719546447
erro
[(1, 2), (0, 1), (0, 2), (2, 1), (2, 2), (1, 1)]
cliques:  0 mip: 40
C:  26.0
x(0,0) = 25.00	 x(0,1) = 9.11	 x(0,2) = 16.11	 
x(1,0) = 10.94	 x(1,1) = 6.79	 x(1,2) = 13.94	 
x(2,0) = 18.59	 x(2,1) = 4.19	 x(2,2) = 12.59	 
y(0,1,0) = 0.00	 y(1,0,0) = 1.00	 
y(0,2,0) = 0.00	 y(2,0,0) = 1.00	 
y(1,2,0) = 1.00	 y(2,1,0) = 0.00	 
y(0,1,1) = 0.19	 y(1,0,1) = 0.81	 
y(0,2,1) = 0.12	 y(2,0,1) = 0.88	 
y(1,2,1) = 0.30	 y(2,1,1) = 0.70	 
y(0,1,2) = 0.40	 y(1,0,2) = 0.60	 
y(0,2,2) = 0.25	 y(2,0,2) = 0.75	 
y(1,2,2) = 0.59	 y(2,1,2) = 0.41	 
obj:  1.047168159391973
erro
[(1, 2), (0, 2), (2, 1), (2, 2), (1, 1)]
cliques:  0 mip: 45
C:  26.0
x(0,0) = 25.00	 x(0,1) = 7.99	 x(0,2) = 14.99	 
x(1,0) = 12.05	 x(1,1) = 8.05	 x(1,2) = 15.05	 
x(2,0) = 18.84	 x(2,1) = 4.14	 x(2,2) = 12.84	 
y(0,1,0) = 0.00	 y(1,0,0) = 1.00	 
y(0,2,0) = 0.00	 y(2,0,0) = 1.00	 
y(1,2,0) = 1.00	 y(2,1,0) = 0.00	 
y(0,1,1) = 0.41	 y(1,0,1) = 0.59	 
y(0,2,1) = 0.20	 y(2,0,1) = 0.80	 
y(1,2,1) = 0.18	 y(2,1,1) = 0.82	 
y(0,1,2) = 0.59	 y(1,0,2) = 0.41	 
y(0,2,2) = 0.37	 y(2,0,2) = 0.63	 
y(1,2,2) = 0.46	 y(2,1,2) = 0.54	 
obj:  1.0524236327464438
erro
[(1, 2), (0, 1), (0, 2), (2, 2), (1, 1)]
cliques:  0 mip: 44
C:  26.0
x(0,0) = 25.00	 x(0,1) = 7.65	 x(0,2) = 14.65	 
x(1,0) = 12.34	 x(1,1) = 7.51	 x(1,2) = 15.34	 
x(2,0) = 18.98	 x(2,1) = 3.06	 x(2,2) = 12.98	 
y(0,1,0) = 0.00	 y(1,0,0) = 1.00	 
y(0,2,0) = 0.00	 y(2,0,0) = 1.00	 
y(1,2,0) = 1.00	 y(2,1,0) = 0.00	 
y(0,1,1) = 0.29	 y(1,0,1) = 0.71	 
y(0,2,1) = 0.14	 y(2,0,1) = 0.86	 
y(1,2,1) = 0.10	 y(2,1,1) = 0.90	 
y(0,1,2) = 0.64	 y(1,0,2) = 0.36	 
y(0,2,2) = 0.41	 y(2,0,2) = 0.59	 
y(1,2,2) = 0.42	 y(2,1,2) = 0.58	 
obj:  1.0541818853974085
erro
[(1, 2), (0, 1), (0, 2), (2, 2), (1, 1)]
cliques:  0 mip: 44
C:  26.0
x(0,0) = 25.00	 x(0,1) = 8.81	 x(0,2) = 15.81	 
x(1,0) = 11.26	 x(1,1) = 7.18	 x(1,2) = 14.26	 
x(2,0) = 18.67	 x(2,1) = 3.24	 x(2,2) = 12.67	 
y(0,1,0) = 0.00	 y(1,0,0) = 1.00	 
y(0,2,0) = -0.00	 y(2,0,0) = 1.00	 
y(1,2,0) = 1.00	 y(2,1,0) = 0.00	 
y(0,1,1) = 0.31	 y(1,0,1) = 0.69	 
y(0,2,1) = 0.06	 y(2,0,1) = 0.94	 
y(1,2,1) = 0.12	 y(2,1,1) = 0.88	 
y(0,1,2) = 0.45	 y(1,0,2) = 0.55	 
y(0,2,2) = 0.29	 y(2,0,2) = 0.71	 
y(1,2,2) = 0.55	 y(2,1,2) = 0.45	 
obj:  1.049305791630912
erro
[(1, 2), (0, 1), (0, 2), (2, 2), (1, 1)]
cliques:  0 mip: 0
iterações: 25 cortes cliques encontrados: 4 mip: 1030 objective:  26.0
Coin0506I Presolve 65 (-61) rows, 39 (-25) columns and 202 (-86) elements
Clp1000I sum of infeasibilities 3.24924e-06 - average 4.99884e-08, 0 fixed columns
Coin0506I Presolve 65 (0) rows, 39 (0) columns and 202 (0) elements
Clp0029I End of values pass after 39 iterations
Clp0000I Optimal - objective value 15
Clp0000I Optimal - objective value 15
Coin0511I After Postsolve, objective 15, infeasibilities - dual 0 (0), primal 0 (0)
Clp0000I Optimal - objective value 15
Clp0000I Optimal - objective value 15
Clp0000I Optimal - objective value 15
Coin0511I After Postsolve, objective 15, infeasibilities - dual 0 (0), primal 0 (0)
Clp0032I Optimal objective 15 - 0 iterations time 0.002, Presolve 0.00, Idiot 0.00
Coin3009W Conflict graph built in 0.000 seconds, density: 0.147%
